\ Bipartite Matching problem from page 62 of slides, MIN form
Problem
  BM
Minimize
  value: 1 v1 + 1 v2 + 1 v3 + 1 v4 + 1 v5 + 1 v6 + 1 v7 + 1 v8 + 1 v9 + 1 v10
Subject To
  e16: 1 v1 + 1 v6 >= 1
  e17: 1 v1 + 1 v7 >= 1
  e19: 1 v1 + 1 v9 >= 1
  e26: 1 v2 + 1 v6 >= 1
  e27: 1 v2 + 1 v7 >= 1
  e36: 1 v3 + 1 v6 >= 1
  e38: 1 v3 + 1 v8 >= 1
  e39: 1 v3 + 1 v9 >= 1
  e47: 1 v4 + 1 v7 >= 1
  e410: 1 v4 + 1 v10 >= 1
  e57: 1 v5 + 1 v7 >= 1
  e510: 1 v5 + 1 v10 >= 1
End